12.31
11.87
10.81
10.29
11.81
10.24
11.87
10.52
9.82
12.52
9.94
11.36
12.17
10.41
9.69
11.77
10.84
11.26
10.74
12.59
11.84
11.41
10.55
10.00
10.28
10.07
9.97
10.84
11.88
10.98
11.43
11.10
10.18
11.67
10.00
11.84
13.00
9.58
10.01
11.93
